DATASET = "thpack7";
INSTANCE = "009";

WIDTH = 233;
HEIGHT = 220;
LENGTH = 587;

NO_OF_SHAPES = 20;
size = [|
  90,70,63 |
  84,78,28 |
  94,85,39 |
  80,76,54 |
  69,50,45 |
  70,57,37 |
  94,61,54 |
  92,44,29 |
  72,53,37 |
  89,43,27 |
  91,44,28 |
  78,76,68 |
  84,61,33 |
  107,40,39 |
  114,75,69 |
  57,55,48 |
  99,57,47 |
  92,66,44 |
  73,48,42 |
  99,46,39 |
|];

verticality = [|
  1,1,1 |
  0,0,1 |
  0,0,1 |
  1,1,1 |
  1,1,1 |
  1,1,1 |
  1,1,1 |
  0,1,1 |
  1,1,1 |
  0,1,1 |
  0,1,1 |
  1,1,1 |
  0,1,1 |
  0,1,1 |
  1,1,1 |
  1,1,1 |
  0,1,1 |
  0,1,1 |
  1,1,1 |
  0,1,1 |
|];

box_count = [
  3,
  1,
  6,
  7,
  6,
  8,
  4,
  7,
  4,
  4,
  7,
  11,
  7,
  5,
  7,
  11,
  4,
  7,
  10,
  10,
];
